;; produced by cvc4_16.drv ;;
(set-logic AUFBVFPDTNIRA)
(set-info :smt-lib-version 2.6)
;;; generated by SMT-LIB2 driver
;;; SMT-LIB2 driver: bit-vectors, common part
;;; SMT-LIB2: integer arithmetic
(declare-sort string 0)

(declare-datatypes ((tuple0 0))
(((Tuple0))))
(declare-sort us_private 0)

(declare-fun private__bool_eq (us_private us_private) Bool)

(declare-const us_null_ext__ us_private)

(declare-sort us_type_of_heap 0)

(declare-datatypes ((us_type_of_heap__ref 0))
(((us_type_of_heap__refqtmk (us_type_of_heap__content us_type_of_heap)))))
(declare-sort us_image 0)

(declare-datatypes ((int__ref 0))
(((int__refqtmk (int__content Int)))))
(declare-datatypes ((bool__ref 0))
(((bool__refqtmk (bool__content Bool)))))
(declare-datatypes ((us_fixed__ref 0))
(((us_fixed__refqtmk (us_fixed__content Int)))))
(declare-datatypes ((real__ref 0))
(((real__refqtmk (real__content Real)))))
(declare-datatypes ((us_private__ref 0))
(((us_private__refqtmk (us_private__content us_private)))))
(define-fun int__ref___projection ((a int__ref)) Int (int__content a))

(define-fun us_fixed__ref___projection ((a us_fixed__ref)) Int (us_fixed__content
                                                               a))

(define-fun bool__ref___projection ((a bool__ref)) Bool (bool__content a))

(define-fun real__ref___projection ((a real__ref)) Real (real__content a))

(define-fun us_private__ref___projection ((a us_private__ref)) us_private 
  (us_private__content a))

(declare-datatypes ((us_split_fields 0))
(((us_split_fieldsqtmk (rec__p__pt__comp Bool)))))
(define-fun us_split_fields_rec__p__pt__comp__projection ((a us_split_fields)) Bool 
  (rec__p__pt__comp a))

(declare-datatypes ((us_split_fields__ref 0))
(((us_split_fields__refqtmk (us_split_fields__content us_split_fields)))))
(define-fun us_split_fields__ref___split_fields__content__projection ((a us_split_fields__ref)) us_split_fields 
  (us_split_fields__content a))

(declare-datatypes ((us_rep 0))
(((us_repqtmk (us_split_fields1 us_split_fields)))))
(define-fun us_rep___split_fields__projection ((a us_rep)) us_split_fields 
  (us_split_fields1 a))

(declare-const value__size Int)

(declare-const object__size Int)

(declare-const alignment Int)

;; value__size_axiom
  (assert (<= 0 value__size))

;; object__size_axiom
  (assert (<= 0 object__size))

;; alignment_axiom
  (assert (<= 0 alignment))

(declare-const p__pt__comp__first__bit Int)

(declare-const p__pt__comp__last__bit Int)

(declare-const p__pt__comp__position Int)

;; p__pt__comp__first__bit_axiom
  (assert (<= 0 p__pt__comp__first__bit))

;; p__pt__comp__last__bit_axiom
  (assert (< p__pt__comp__first__bit p__pt__comp__last__bit))

;; p__pt__comp__position_axiom
  (assert (<= 0 p__pt__comp__position))

(declare-fun user_eq (us_rep us_rep) Bool)

(declare-datatypes ((pt__ref 0))
(((pt__refqtmk (pt__content us_rep)))))
(define-fun pt__ref_pt__content__projection ((a pt__ref)) us_rep (pt__content
                                                                 a))

(declare-fun fun__ (us_rep) Bool)

(declare-fun fun____function_guard (Bool us_rep) Bool)

(define-fun in_range ((x Int)) Bool (or (= x 0) (= x 1)))

(declare-fun attr__ATTRIBUTE_IMAGE (Bool) us_image)

(declare-fun attr__ATTRIBUTE_VALUE__pre_check (us_image) Bool)

(declare-fun attr__ATTRIBUTE_VALUE (us_image) Bool)

(define-fun default_initial_assumption ((temp___expr_181 us_rep)
  (temp___skip_top_level_182 Bool)) Bool (= (rec__p__pt__comp
                                            (us_split_fields1
                                            temp___expr_181)) (distinct 1 0)))

;; fun____post_axiom
  (assert true)

(assert
;; defqtvc
 ;; File "p.adb", line 6, characters 0-0
  (not
  (forall ((self__ Bool))
  (=>
  (forall ((self__1 Bool)) (fun____function_guard
  (fun__ (us_repqtmk (us_split_fieldsqtmk self__1)))
  (us_repqtmk (us_split_fieldsqtmk self__1))))
  (= (fun__ (us_repqtmk (us_split_fieldsqtmk self__))) true)))))
(check-sat)
